10J3M/DAT/10J3MNNA-17.dat
10 3
19.9717 398.8688
27.6101 762.3176
23.6297 558.3627
27.762 770.7286
24.7638 613.2458
32.9836 1087.9179
26.3141 692.4319
24.8616 618.0992
32.3664 1047.5838
24.501 600.299
7149.8553