10J3M/SOL/10J3MNNA-17.sol
solution status: optimal solution found
objective value:                              77.8254
x#1#1                               0.212010664793409 	(obj:0)
x#1#3                               0.787989335206591 	(obj:0)
x#2#1                                0.27502598142747 	(obj:0)
x#2#2                                0.72497401857253 	(obj:0)
x#3#1                                               1 	(obj:0)
x#4#2                                               1 	(obj:0)
x#5#2                                               1 	(obj:0)
x#6#3                                               1 	(obj:0)
x#7#1                                               1 	(obj:0)
x#8#3                                               1 	(obj:0)
x#9#1                                               1 	(obj:0)
x#10#2                                              1 	(obj:0)
z                                             77.8254 	(obj:1)
